words_hard_train/9227.qaiger
aag 90 16 0 1 74
2
4
8
12
16
20
28
32
36
40
52
56
64
68
82
84
180
6 2 5
10 2 8
14 10 12
18 14 16
22 19 21
24 18 20
26 23 25
30 5 29
34 30 33
38 34 37
42 39 40
44 38 41
46 43 45
48 26 46
50 7 49
54 24 52
58 55 57
60 54 56
62 59 61
66 44 65
70 67 68
72 66 69
74 71 73
76 63 75
78 50 77
80 59 71
86 82 85
88 83 84
90 87 89
92 81 90
94 73 61
96 93 94
98 78 97
100 90 95
102 15 17
104 103 19
106 35 36
108 107 39
110 105 109
112 104 108
114 111 113
116 25 53
118 117 55
120 45 64
122 121 67
124 118 122
126 114 125
128 101 126
130 119 123
132 3 9
134 133 11
136 4 28
138 137 31
140 134 138
142 3 4
144 141 143
146 135 139
148 144 147
150 27 47
152 148 151
154 131 152
156 11 13
158 157 15
160 31 32
162 161 35
164 158 162
166 159 163
168 165 167
170 145 168
172 170 147
174 173 168
176 154 174
178 128 176
180 98 178
i0 2 y2[0]
i1 1 x1[0]
i2 2 y2[1]
i3 2 y2[2]
i4 2 y2[3]
i5 2 y2[4]
i6 1 x1[1]
i7 1 x1[2]
i8 1 x1[3]
i9 1 x1[4]
i10 2 y2[5]
i11 2 y2[6]
i12 1 x1[5]
i13 1 x1[6]
i14 2 y2[7]
i15 1 x1[7]
o0 bool[0]
c
simplified
  ==
    unary minus
      1
    subtract
      add
        2 y2
        1
      1 x1
