words_hard_train/9227.qaiger.qdimacs
p cnf 90 223
a 32 2 34 42 14 16 18 20 0
e 1 3 4 5 6 7 8 9 10 11 12 13 15 17 19 21 22 23 24 25 26 27 28 29 30 31 33 35 36 37 38 39 40 41 43 44 45 46 47 48 49 50 51 52 53 54 55 56 57 58 59 60 61 62 63 64 65 66 67 68 69 70 71 72 73 74 75 76 77 78 79 80 81 82 83 84 85 86 87 88 89 90 0
-1 2 3 0
1 -3 0
-2 -3 0
-1 -4 5 0
1 -5 0
4 -5 0
-5 -6 7 0
5 -7 0
6 -7 0
-7 -8 9 0
7 -9 0
8 -9 0
9 10 11 0
-9 -11 0
-10 -11 0
-9 -10 12 0
9 -12 0
10 -12 0
11 12 13 0
-11 -13 0
-12 -13 0
2 14 15 0
-2 -15 0
-14 -15 0
-15 16 17 0
15 -17 0
-16 -17 0
-17 18 19 0
17 -19 0
-18 -19 0
19 -20 21 0
-19 -21 0
20 -21 0
-19 20 22 0
19 -22 0
-20 -22 0
21 22 23 0
-21 -23 0
-22 -23 0
-13 -23 24 0
13 -24 0
23 -24 0
3 24 25 0
-3 -25 0
-24 -25 0
-12 -26 27 0
12 -27 0
26 -27 0
27 28 29 0
-27 -29 0
-28 -29 0
-27 -28 30 0
27 -30 0
28 -30 0
29 30 31 0
-29 -31 0
-30 -31 0
-22 32 33 0
22 -33 0
-32 -33 0
33 -34 35 0
-33 -35 0
34 -35 0
-33 34 36 0
33 -36 0
-34 -36 0
35 36 37 0
-35 -37 0
-36 -37 0
31 37 38 0
-31 -38 0
-37 -38 0
-25 38 39 0
25 -39 0
-38 -39 0
29 35 40 0
-29 -40 0
-35 -40 0
-41 42 43 0
41 -43 0
-42 -43 0
41 -42 44 0
-41 -44 0
42 -44 0
43 44 45 0
-43 -45 0
-44 -45 0
40 -45 46 0
-40 -46 0
45 -46 0
36 30 47 0
-36 -47 0
-30 -47 0
46 -47 48 0
-46 -48 0
47 -48 0
-39 48 49 0
39 -49 0
-48 -49 0
-45 47 50 0
45 -50 0
-47 -50 0
7 8 51 0
-7 -51 0
-8 -51 0
51 9 52 0
-51 -52 0
-9 -52 0
17 -18 53 0
-17 -53 0
18 -53 0
53 19 54 0
-53 -54 0
-19 -54 0
52 54 55 0
-52 -55 0
-54 -55 0
-52 -54 56 0
52 -56 0
54 -56 0
55 56 57 0
-55 -57 0
-56 -57 0
12 26 58 0
-12 -58 0
-26 -58 0
58 27 59 0
-58 -59 0
-27 -59 0
22 -32 60 0
-22 -60 0
32 -60 0
60 33 61 0
-60 -61 0
-33 -61 0
-59 -61 62 0
59 -62 0
61 -62 0
-57 62 63 0
57 -63 0
-62 -63 0
50 -63 64 0
-50 -64 0
63 -64 0
59 61 65 0
-59 -65 0
-61 -65 0
1 4 66 0
-1 -66 0
-4 -66 0
66 5 67 0
-66 -67 0
-5 -67 0
-2 -14 68 0
2 -68 0
14 -68 0
68 15 69 0
-68 -69 0
-15 -69 0
-67 -69 70 0
67 -70 0
69 -70 0
1 -2 71 0
-1 -71 0
2 -71 0
70 71 72 0
-70 -72 0
-71 -72 0
67 69 73 0
-67 -73 0
-69 -73 0
-72 73 74 0
72 -74 0
-73 -74 0
13 23 75 0
-13 -75 0
-23 -75 0
-74 75 76 0
74 -76 0
-75 -76 0
65 -76 77 0
-65 -77 0
76 -77 0
5 6 78 0
-5 -78 0
-6 -78 0
78 7 79 0
-78 -79 0
-7 -79 0
15 -16 80 0
-15 -80 0
16 -80 0
80 17 81 0
-80 -81 0
-17 -81 0
-79 -81 82 0
79 -82 0
81 -82 0
79 81 83 0
-79 -83 0
-81 -83 0
82 83 84 0
-82 -84 0
-83 -84 0
72 -84 85 0
-72 -85 0
84 -85 0
-85 73 86 0
85 -86 0
-73 -86 0
86 -84 87 0
-86 -87 0
84 -87 0
-77 -87 88 0
77 -88 0
87 -88 0
-64 -88 89 0
64 -89 0
88 -89 0
-49 -89 90 0
49 -90 0
89 -90 0
90 0
